problems/GracefulWheelGraphs/GracefulWheelGraphs-models/compact/O0/minion/model-n07-solution000001.eprime-solution
language ESSENCE' 1.0

letting colouring_Function1D be [0, 1, 4, 2, 10, 3, 9, 14; int(0..7)]
letting edgeID_Function1D be [1, 3, 2, 8, 7, 6, 9, 14, 13, 10, 12, 4, 11, 5; int(0..13)]
