problems/GracefulWheelGraphs/GracefulWheelGraphs-models/compact/O0/minion/model-n07-solution000001.solution
language Essence 1.3

letting colouring be function(0 --> 0, 1 --> 1, 2 --> 4, 3 --> 2, 4 --> 10, 5 --> 3, 6 --> 9, 7 --> 14)
letting edgeID be
        function(0 --> 1, 1 --> 3, 2 --> 2, 3 --> 8, 4 --> 7, 5 --> 6, 6 --> 9, 7 --> 14, 8 --> 13, 9 --> 10, 10 --> 12,
                 11 --> 4, 12 --> 11, 13 --> 5)
